58
 1 986 17
 2 464 8
 3 1044 18
 4 290 5
 5 464 8
 6 232 4
 7 522 9
 8 522 9
 9 1102 19
 10 754 13
 11 116 2
 12 1102 19
 13 696 12
 14 986 17
 15 58 1
 16 638 11
 17 290 5
 18 812 14
 19 638 11
 20 522 9
 21 986 17
 22 1160 20
 23 58 1
 24 1044 18
 25 580 10
 26 290 5
 27 406 7
 28 348 6
 29 290 5
 30 696 12
 31 638 11
 32 870 15
 33 580 10
 34 174 3
 35 290 5
 36 696 12
 37 348 6
 38 1102 19
 39 232 4
 40 522 9
 41 174 3
 42 348 6
 43 348 6
 44 986 17
 45 696 12
 46 406 7
 47 232 4
 48 812 14
 49 406 7
 50 464 8
 51 464 8
 52 522 9
 53 986 17
 54 406 7
 55 58 1
 56 174 3
 57 580 10
 58 696 12
464